Route #1: 1 42 19 34 53 20 60 39 15
Route #2: 1 17 21 26 47 4 12 22 5 7 35
Route #3: 1 41 32 29 45 50 54 31 37 3
Route #4: 1 48 24 51 40 56 36 16 28 38 33 10
Route #5: 1 25 2 49 6 11
Route #6: 1 59 44 57 13 52
Route #7: 1 46 43 23 55
Route #8: 1 18 58 9 30
Route #9: 1 8 14 27
cost 1635
